p cnf 28 73
a 1 20 0
e 2 3 4 5 6 7 8 9 10 11 12 13 14 15 16 17 18 19 21 22 23 24 25 26 27 28 0
-1 2 -3 0
1 -2 -3 0
-1 -2 3 0
1 2 3 0
5 -3 0
5 -4 0
3 4 -5 0
7 6 0
7 -1 0
-6 1 -7 0
-9 -6 0
-9 8 0
6 -8 9 0
10 -9 0
10 -6 0
9 6 -10 0
12 10 0
12 -11 0
-10 11 -12 0
13 -10 0
13 -12 0
10 12 -13 0
14 7 0
14 13 0
-7 -13 -14 0
5 -14 -15 0
-5 14 -15 0
5 14 15 0
-5 -14 15 0
-17 16 0
-17 1 0
-16 -1 17 0
-18 -15 0
-18 -17 0
15 17 18 0
-19 16 -20 0
19 -16 -20 0
-19 -16 20 0
19 16 20 0
21 9 0
21 -20 0
-9 20 -21 0
-6 2 -22 0
6 -2 -22 0
-6 -2 22 0
6 2 22 0
21 22 -23 0
-21 -22 -23 0
21 -22 23 0
-21 22 23 0
24 -18 0
24 -23 0
18 23 -24 0
-25 6 0
-25 19 0
-6 -19 25 0
26 25 0
26 6 0
-25 -6 -26 0
-27 6 0
-27 26 0
-6 -26 27 0
28 -24 0
28 -27 0
24 27 -28 0
19 -5 -8 -7 -11 -26 0
6 -11 3 19 -13 -7 -21 0
15 -20 -24 28 -8 0
-15 2 -6 -19 -12 -8 0
12 -24 8 -23 17 7 0
-8 13 27 -12 -7 0
-22 3 -17 28 0
28 0
